(set-logic QF_S)
(declare-fun var0 () String)
(declare-fun var1 () String)
(declare-fun var2 () String)
(declare-fun var3 () String)
(declare-fun var4 () String)
(declare-fun var5 () String)
(declare-fun var6 () String)
(declare-fun var7 () String)
(declare-fun var8 () String)
(declare-fun var9 () String)
(declare-fun var10 () String)
(declare-fun var11 () String)
(declare-fun var12 () String)
(declare-fun var13 () String)
(declare-fun var14 () String)
(declare-fun var15 () String)
(declare-fun var16 () String)
(declare-fun var17 () String)
(declare-fun var18 () String)
(declare-fun var19 () String)
(declare-fun var20 () String)
(declare-fun var21 () String)
(declare-fun var22 () String)
(declare-fun var23 () String)
(declare-fun var24 () String)
(declare-fun var25 () String)
(declare-fun var26 () String)
(declare-fun var27 () String)
(declare-fun var28 () String)
(declare-fun var29 () String)
(declare-fun var30 () String)
(declare-fun var31 () String)
(declare-fun var32 () String)
(declare-fun var33 () String)
(declare-fun var34 () String)
(declare-fun var35 () String)
(declare-fun var36 () String)
(declare-fun var37 () String)
(declare-fun var38 () String)
(declare-fun var39 () String)
(declare-fun var40 () String)
(declare-fun var41 () String)
(declare-fun var42 () String)
(declare-fun var43 () String)
(declare-fun var44 () String)
(declare-fun var45 () String)
(declare-fun var46 () String)
(declare-fun var47 () String)
(declare-fun var48 () String)
(declare-fun var49 () String)
(declare-fun var50 () String)
(declare-fun var51 () String)
(declare-fun var52 () String)
(declare-fun var53 () String)
(declare-fun var54 () String)
(declare-fun var55 () String)
(declare-fun var56 () String)
(declare-fun var57 () String)
(declare-fun var58 () String)
(declare-fun var59 () String)
(declare-fun var60 () String)
(assert (= var0 (str.++ var1 var2)))
(assert (= var2 (str.++ var3 var4)))
(assert (= var4 (str.++ var5 var6)))
(assert (= var6 (str.++ var7 var8)))
(assert (= var8 (str.++ var9 var10)))
(assert (= var10 (str.++ var11 var12)))
(assert (= var12 (str.++ var13 var14)))
(assert (= var14 (str.++ var15 var16)))
(assert (= var16 (str.++ var17 var18)))
(assert (= var18 (str.++ var19 var20)))
(assert (= var20 (str.++ var21 var22)))
(assert (= var22 (str.++ var23 var24)))
(assert (= var24 (str.++ var25 var26)))
(assert (= var26 (str.++ var27 var28)))
(assert (= var28 (str.++ var29 var30)))
(assert (= var30 (str.++ var31 var32)))
(assert (= var32 (str.++ var33 var34)))
(assert (= var34 (str.++ var35 var36)))
(assert (= var36 (str.++ var37 var38)))
(assert (= var38 (str.++ var39 var40)))
(assert (= var40 (str.++ var41 var42)))
(assert (= var42 (str.++ var43 var44)))
(assert (= var44 (str.++ var45 var46)))
(assert (= var46 (str.++ var47 var48)))
(assert (= var48 (str.++ var49 var50)))
(assert (= var50 (str.++ var51 var52)))
(assert (= var52 (str.++ var53 var54)))
(assert (= var54 (str.++ var55 var56)))
(assert (= var56 (str.++ var57 var58)))
(assert (= var58 (str.++ var59 var60)))
(assert (= var0 "solution"))
(assert (= "^" (str.at var13 155)))
(assert (= "t" (str.at var42 495)))
(assert (= "X" (str.at var26 616)))
(assert (= "P" (str.at var15 618)))
(assert (= "I" (str.at var56 586)))
(assert (= "N" (str.at var6 364)))
(assert (= "o" (str.at var13 898)))
(assert (= "@" (str.at var10 425)))
(assert (= "O" (str.at var33 289)))
(assert (= "E" (str.at var12 585)))
(assert (= "&" (str.at var29 435)))
(assert (= "d" (str.at var10 922)))
(assert (= "3" (str.at var60 592)))
(assert (= "=" (str.at var60 568)))
(assert (= """" (str.at var39 31)))
(assert (= "1" (str.at var56 923)))
(assert (= "R" (str.at var17 839)))
(assert (= "B" (str.at var52 930)))
(assert (= "h" (str.at var27 840)))
(assert (= "|" (str.at var27 270)))
(assert (= "f" (str.at var10 888)))
(assert (= "!" (str.at var4 774)))
(assert (= "i" (str.at var33 407)))
(assert (= "^" (str.at var42 863)))
(assert (= "F" (str.at var39 518)))
(assert (= "S" (str.at var24 591)))
(assert (= "\\" (str.at var9 464)))
(assert (= "8" (str.at var46 972)))
(assert (= "R" (str.at var2 828)))
(assert (= "-" (str.at var49 306)))
(assert (= "j" (str.at var57 806)))
(assert (= "i" (str.at var30 619)))
(assert (= "c" (str.at var24 462)))
(assert (= """" (str.at var48 673)))
(assert (= "c" (str.at var27 511)))
(assert (= "3" (str.at var37 697)))
(assert (= "_" (str.at var36 455)))
(assert (= "{" (str.at var47 930)))
(assert (= "=" (str.at var15 380)))
(assert (= "m" (str.at var3 203)))
(assert (= "|" (str.at var6 224)))
(assert (= "}" (str.at var44 298)))
(assert (= "K" (str.at var55 485)))
(assert (= "S" (str.at var46 370)))
(assert (= "(" (str.at var49 262)))
(assert (= "*" (str.at var26 721)))
(assert (= "e" (str.at var38 273)))
(assert (= "V" (str.at var5 334)))
(assert (= "o" (str.at var15 161)))
(assert (= "j" (str.at var7 950)))
(assert (= "u" (str.at var44 47)))
(assert (= "a" (str.at var25 50)))
(assert (= "1" (str.at var35 31)))
(assert (= "#" (str.at var12 280)))
(assert (= "b" (str.at var33 291)))
(assert (= "g" (str.at var14 406)))
(assert (= "F" (str.at var38 51)))
(assert (= "u" (str.at var45 739)))
(assert (= "6" (str.at var24 368)))
(assert (= "I" (str.at var5 201)))
(assert (= """" (str.at var16 909)))
(assert (= "W" (str.at var58 574)))
(assert (= "f" (str.at var14 86)))
(assert (= "E" (str.at var7 158)))
(assert (= "." (str.at var29 649)))
(assert (= "~" (str.at var26 976)))
(assert (= "^" (str.at var35 669)))
(assert (= "2" (str.at var27 895)))
(assert (= "1" (str.at var25 979)))
(assert (= "o" (str.at var15 584)))
(assert (= "L" (str.at var5 683)))
(assert (= "p" (str.at var59 85)))
(assert (= ">" (str.at var50 410)))
(assert (= "0" (str.at var33 134)))
(assert (= "~" (str.at var4 178)))
(assert (= ";" (str.at var21 629)))
(assert (= "k" (str.at var51 325)))
(assert (= "A" (str.at var41 508)))
(assert (= ";" (str.at var33 849)))
(assert (= "f" (str.at var43 691)))
(assert (= "M" (str.at var56 467)))
(assert (= ">" (str.at var7 992)))
(assert (= "N" (str.at var43 504)))
(assert (= "s" (str.at var10 599)))
(assert (= "J" (str.at var52 435)))
(assert (= "=" (str.at var8 570)))
(assert (= "]" (str.at var22 742)))
(assert (= "M" (str.at var55 195)))
(assert (= ")" (str.at var58 409)))
(assert (= "R" (str.at var1 431)))
(assert (= "o" (str.at var26 829)))
(assert (= "?" (str.at var33 991)))
(assert (= "5" (str.at var16 719)))
(assert (= "+" (str.at var48 418)))
(assert (= "5" (str.at var31 23)))
(assert (= "&" (str.at var56 764)))
(assert (= "m" (str.at var34 280)))
(assert (= "F" (str.at var18 540)))
(assert (= "x" (str.at var57 215)))
(assert (= "k" (str.at var53 666)))
(assert (= "0" (str.at var27 59)))
(assert (= "$" (str.at var17 492)))
(assert (= """" (str.at var12 399)))
(assert (= "6" (str.at var26 372)))
(assert (= "c" (str.at var15 392)))
(assert (= "0" (str.at var5 977)))
(assert (= "d" (str.at var5 311)))
(assert (= "8" (str.at var13 431)))
(assert (= "=" (str.at var21 552)))
(assert (= "&" (str.at var38 828)))
(assert (= "w" (str.at var47 368)))
(assert (= "b" (str.at var37 105)))
(assert (= "U" (str.at var58 43)))
(assert (= "W" (str.at var4 710)))
(assert (= "O" (str.at var8 617)))
(assert (= "@" (str.at var52 585)))
(assert (= "3" (str.at var46 267)))
(assert (= "%" (str.at var33 495)))
(assert (= "w" (str.at var34 646)))
(assert (= "w" (str.at var49 161)))
(assert (= "~" (str.at var38 573)))
(assert (= "s" (str.at var12 549)))
(assert (= "." (str.at var35 494)))
(assert (= "D" (str.at var10 848)))
(assert (= "e" (str.at var6 233)))
(assert (= "'" (str.at var31 231)))
(assert (= "f" (str.at var22 581)))
(assert (= "#" (str.at var12 89)))
(assert (= "S" (str.at var48 345)))
(assert (= """" (str.at var37 368)))
(assert (= "P" (str.at var24 899)))
(assert (= "u" (str.at var41 808)))
(assert (= "." (str.at var36 830)))
(assert (= "G" (str.at var30 578)))
(assert (= "#" (str.at var14 459)))
(assert (= ")" (str.at var46 891)))
(assert (= "@" (str.at var4 461)))
(assert (= "Y" (str.at var29 285)))
(assert (= "f" (str.at var43 703)))
(assert (= "N" (str.at var52 65)))
(assert (= "t" (str.at var38 224)))
(assert (= "/" (str.at var5 527)))
(assert (= "/" (str.at var41 950)))
(assert (= "z" (str.at var26 555)))
(assert (= "G" (str.at var30 761)))
(assert (= "z" (str.at var38 92)))
(assert (= "U" (str.at var45 957)))
(assert (= "j" (str.at var36 982)))
(assert (= "S" (str.at var42 445)))
(assert (= "@" (str.at var27 828)))
(assert (= "*" (str.at var30 536)))
(assert (= "]" (str.at var60 468)))
(assert (= "A" (str.at var21 772)))
(assert (= "y" (str.at var17 139)))
(assert (= "t" (str.at var52 285)))
(assert (= "d" (str.at var8 718)))
(assert (= "t" (str.at var60 784)))
(assert (= "F" (str.at var28 658)))
(assert (= "f" (str.at var47 899)))
(assert (= "v" (str.at var30 989)))
(assert (= "9" (str.at var37 856)))
(assert (= "2" (str.at var56 491)))
(assert (= "6" (str.at var53 7)))
(assert (= "d" (str.at var22 178)))
(assert (= "M" (str.at var6 609)))
(assert (= "D" (str.at var30 63)))
(assert (= "`" (str.at var10 5)))
(assert (= "q" (str.at var4 437)))
(assert (= "A" (str.at var26 355)))
(assert (= "@" (str.at var16 442)))
(assert (= "g" (str.at var8 282)))
(assert (= "m" (str.at var19 341)))
(assert (= "." (str.at var31 269)))
(assert (= "/" (str.at var54 193)))
(assert (= "b" (str.at var54 636)))
(assert (= "V" (str.at var40 445)))
(assert (= "n" (str.at var40 65)))
(assert (= "A" (str.at var6 521)))
(assert (= "{" (str.at var58 572)))
(assert (= "#" (str.at var19 266)))
(assert (= "`" (str.at var58 393)))
(assert (= "&" (str.at var18 325)))
(assert (= "S" (str.at var48 698)))
(assert (= "^" (str.at var38 892)))
(assert (= "P" (str.at var44 595)))
(assert (= "y" (str.at var24 788)))
(assert (= "U" (str.at var32 299)))
(assert (= "Z" (str.at var13 40)))
(assert (= "F" (str.at var58 963)))
(assert (= "@" (str.at var59 140)))
(assert (= "N" (str.at var15 610)))
(assert (= "`" (str.at var36 418)))
(assert (= "9" (str.at var50 23)))
(assert (= "1" (str.at var20 644)))
(assert (= "z" (str.at var14 636)))
(assert (= "?" (str.at var18 139)))
(assert (= "+" (str.at var36 162)))
(assert (= "_" (str.at var42 83)))
(assert (= "." (str.at var54 680)))
(assert (= "[" (str.at var40 93)))
(assert (= "n" (str.at var23 27)))
(assert (= "*" (str.at var28 692)))
(assert (= "-" (str.at var7 475)))
(assert (= ":" (str.at var13 114)))
(assert (= "p" (str.at var54 242)))
(assert (= "j" (str.at var48 359)))
(assert (= "v" (str.at var48 432)))
(assert (= "V" (str.at var5 222)))
(assert (= "R" (str.at var42 535)))
(assert (= "/" (str.at var23 36)))
(assert (= "?" (str.at var18 281)))
(assert (= "\\" (str.at var0 964)))
(assert (= "3" (str.at var21 667)))
(assert (= "X" (str.at var46 634)))
(assert (= "p" (str.at var50 376)))
(assert (= "]" (str.at var9 234)))
(assert (= "{" (str.at var56 383)))
(assert (= "~" (str.at var56 237)))
(assert (= "7" (str.at var52 719)))
(assert (= "g" (str.at var55 468)))
(assert (= "f" (str.at var52 613)))
(assert (= "k" (str.at var0 287)))
(assert (= "\\" (str.at var10 117)))
(assert (= "W" (str.at var39 110)))
(assert (= "E" (str.at var22 289)))
(assert (= "&" (str.at var48 331)))
(assert (= "y" (str.at var4 521)))
(assert (= "*" (str.at var1 419)))
(assert (= ")" (str.at var13 256)))
(assert (= "r" (str.at var60 544)))
(assert (= "O" (str.at var48 114)))
(assert (= "C" (str.at var27 549)))
(assert (= "x" (str.at var12 844)))
(assert (= "h" (str.at var56 61)))
(assert (= "w" (str.at var48 804)))
(assert (= "}" (str.at var56 128)))
(assert (= "p" (str.at var13 180)))
(assert (= "{" (str.at var23 522)))
(assert (= "T" (str.at var42 361)))
(assert (= "U" (str.at var10 10)))
(assert (= "u" (str.at var41 752)))
(assert (= "h" (str.at var17 482)))
(assert (= "_" (str.at var49 280)))
(assert (= "[" (str.at var0 334)))
(assert (= "G" (str.at var47 385)))
(assert (= "N" (str.at var18 833)))
(assert (= "{" (str.at var40 385)))
(assert (= "'" (str.at var43 594)))
(assert (= "h" (str.at var3 510)))
(assert (= "B" (str.at var30 675)))
(assert (= "m" (str.at var6 933)))
(assert (= ">" (str.at var1 383)))
(assert (= "B" (str.at var41 598)))
(assert (= "\\" (str.at var22 214)))
(assert (= "\\" (str.at var39 132)))
(assert (= "4" (str.at var8 565)))
(assert (= "K" (str.at var59 221)))
(assert (= "r" (str.at var18 405)))
(assert (= "}" (str.at var46 178)))
(assert (= "I" (str.at var25 541)))
(assert (= "U" (str.at var46 183)))
(assert (= "A" (str.at var1 928)))
(assert (= "G" (str.at var22 567)))
(assert (= "G" (str.at var23 177)))
(assert (= "x" (str.at var29 557)))
(assert (= "v" (str.at var30 365)))
(assert (= "t" (str.at var15 407)))
(assert (= "b" (str.at var37 243)))
(assert (= "'" (str.at var45 106)))
(assert (= "l" (str.at var9 580)))
(assert (= """" (str.at var29 390)))
(assert (= "0" (str.at var5 129)))
(assert (= "q" (str.at var3 54)))
(assert (= "/" (str.at var46 708)))
(assert (= "e" (str.at var38 588)))
(assert (= "/" (str.at var15 853)))
(assert (= """" (str.at var7 199)))
(assert (= "F" (str.at var59 70)))
(assert (= "c" (str.at var36 582)))
(assert (= "!" (str.at var26 18)))
(assert (= "H" (str.at var45 267)))
(assert (= "a" (str.at var59 167)))
(assert (= "r" (str.at var14 415)))
(assert (= "~" (str.at var13 646)))
(assert (= "r" (str.at var23 833)))
(assert (= "U" (str.at var51 810)))
(assert (= "3" (str.at var4 411)))
(assert (= "Q" (str.at var45 708)))
(assert (= "a" (str.at var1 752)))
(assert (= "$" (str.at var29 475)))
(assert (= ";" (str.at var44 39)))
(assert (= ")" (str.at var4 923)))
(assert (= "t" (str.at var21 381)))
(assert (= "c" (str.at var10 283)))
(assert (= ";" (str.at var35 201)))
(assert (= "I" (str.at var24 27)))
(assert (= "G" (str.at var55 633)))
(assert (= "0" (str.at var0 330)))
(assert (= "s" (str.at var15 677)))
(assert (= "3" (str.at var39 589)))
(assert (= "(" (str.at var55 356)))
(assert (= "u" (str.at var28 601)))
(assert (= "w" (str.at var41 246)))
(assert (= "B" (str.at var53 184)))
(assert (= "5" (str.at var11 869)))
(assert (= "_" (str.at var5 228)))
(assert (= "S" (str.at var58 200)))
(assert (= "W" (str.at var40 289)))
(assert (= ">" (str.at var20 796)))
(assert (= "e" (str.at var27 195)))
(assert (= "9" (str.at var9 45)))
(assert (= "2" (str.at var6 901)))
(assert (= "U" (str.at var3 330)))
(assert (= "b" (str.at var23 440)))
(assert (= "J" (str.at var26 670)))
(assert (= "E" (str.at var51 390)))
(assert (= "b" (str.at var10 212)))
(assert (= "$" (str.at var33 961)))
(assert (= "8" (str.at var3 55)))
(assert (= "0" (str.at var21 755)))
(assert (= "&" (str.at var31 855)))
(assert (= "R" (str.at var35 988)))
(assert (= "-" (str.at var8 927)))
(assert (= "E" (str.at var42 867)))
(assert (= "*" (str.at var33 711)))
(assert (= "&" (str.at var29 533)))
(assert (= "l" (str.at var18 949)))
(assert (= ":" (str.at var43 206)))
(assert (= "0" (str.at var6 890)))
(assert (= "*" (str.at var12 648)))
(assert (= "w" (str.at var45 470)))
(assert (= "n" (str.at var50 626)))
(assert (= "9" (str.at var48 60)))
(assert (= "C" (str.at var15 476)))
(assert (= "L" (str.at var50 778)))
(assert (= "C" (str.at var18 541)))
(assert (= "~" (str.at var56 354)))
(assert (= ":" (str.at var57 351)))
(assert (= "1" (str.at var60 716)))
(assert (= ")" (str.at var46 374)))
(assert (= "3" (str.at var38 455)))
(assert (= "+" (str.at var33 447)))
(assert (= "B" (str.at var25 929)))
(assert (= "o" (str.at var50 371)))
(assert (= "d" (str.at var50 241)))
(assert (= "9" (str.at var24 4)))
(assert (= "=" (str.at var43 843)))
(assert (= "~" (str.at var10 817)))
(assert (= "}" (str.at var18 999)))
(assert (= "x" (str.at var6 410)))
(assert (= """" (str.at var36 126)))
(assert (= "L" (str.at var51 277)))
(assert (= "k" (str.at var45 197)))
(assert (= "9" (str.at var2 936)))
(assert (= "Y" (str.at var38 784)))
(assert (= "7" (str.at var29 586)))
(assert (= "D" (str.at var46 378)))
(assert (= "/" (str.at var39 125)))
(assert (= "3" (str.at var19 714)))
(assert (= "1" (str.at var29 396)))
(assert (= "p" (str.at var39 844)))
(assert (= "H" (str.at var57 528)))
(assert (= "D" (str.at var8 200)))
(assert (= "Q" (str.at var59 927)))
(assert (= "o" (str.at var45 449)))
(assert (= "i" (str.at var18 740)))
(assert (= "w" (str.at var35 829)))
(assert (= "&" (str.at var38 673)))
(assert (= "'" (str.at var57 216)))
(assert (= "O" (str.at var15 299)))
(assert (= "5" (str.at var56 156)))
(assert (= "&" (str.at var1 463)))
(assert (= "A" (str.at var54 345)))
(assert (= "e" (str.at var38 38)))
(assert (= "%" (str.at var52 574)))
(assert (= "f" (str.at var40 142)))
(assert (= "m" (str.at var20 314)))
(assert (= "U" (str.at var59 732)))
(assert (= "1" (str.at var29 884)))
(assert (= "w" (str.at var15 136)))
(assert (= "[" (str.at var55 456)))
(assert (= "W" (str.at var58 793)))
(assert (= "#" (str.at var27 72)))
(assert (= "d" (str.at var19 437)))
(assert (= "m" (str.at var20 370)))
(assert (= "`" (str.at var32 91)))
(assert (= "i" (str.at var19 756)))
(assert (= "{" (str.at var7 799)))
(assert (= "D" (str.at var6 594)))
(assert (= "%" (str.at var22 333)))
(assert (= "_" (str.at var9 503)))
(assert (= "`" (str.at var39 880)))
(assert (= "E" (str.at var47 662)))
(assert (= "[" (str.at var17 687)))
(assert (= "4" (str.at var39 567)))
(assert (= "]" (str.at var21 618)))
(assert (= "[" (str.at var6 584)))
(assert (= "^" (str.at var21 525)))
(assert (= "e" (str.at var11 196)))
(assert (= "L" (str.at var57 640)))
(assert (= ">" (str.at var38 138)))
(assert (= "L" (str.at var29 928)))
(assert (= ":" (str.at var17 23)))
(assert (= "$" (str.at var58 876)))
(assert (= "{" (str.at var20 662)))
(assert (= "~" (str.at var29 367)))
(assert (= "I" (str.at var34 773)))
(assert (= "0" (str.at var49 242)))
(assert (= "d" (str.at var23 555)))
(assert (= "R" (str.at var55 518)))
(assert (= "," (str.at var6 588)))
(assert (= "R" (str.at var0 800)))
(assert (= ")" (str.at var51 105)))
(assert (= "." (str.at var15 879)))
(assert (= "I" (str.at var38 989)))
(assert (= "j" (str.at var37 964)))
(assert (= "N" (str.at var2 785)))
(assert (= "_" (str.at var34 908)))
(assert (= "o" (str.at var58 748)))
(assert (= "|" (str.at var28 170)))
(assert (= "W" (str.at var15 674)))
(assert (= "g" (str.at var39 79)))
(assert (= "0" (str.at var18 770)))
(assert (= "a" (str.at var6 183)))
(assert (= "8" (str.at var55 795)))
(assert (= "R" (str.at var23 875)))
(assert (= "0" (str.at var4 308)))
(assert (= "`" (str.at var20 951)))
(assert (= "V" (str.at var51 122)))
(assert (= "K" (str.at var31 591)))
(assert (= ">" (str.at var22 691)))
(assert (= "*" (str.at var2 773)))
(assert (= ">" (str.at var53 663)))
(assert (= "6" (str.at var6 79)))
(assert (= ":" (str.at var45 143)))
(assert (= "a" (str.at var22 54)))
(assert (= "o" (str.at var1 184)))
(assert (= "p" (str.at var15 914)))
(assert (= "s" (str.at var12 798)))
(assert (= "k" (str.at var48 407)))
(assert (= "&" (str.at var41 549)))
(assert (= "A" (str.at var48 255)))
(assert (= ")" (str.at var18 796)))
(assert (= "u" (str.at var10 617)))
(assert (= "'" (str.at var42 515)))
(assert (= "<" (str.at var42 378)))
(assert (= "/" (str.at var34 410)))
(assert (= "f" (str.at var56 23)))
(assert (= "H" (str.at var9 49)))
(assert (= "O" (str.at var17 581)))
(assert (= "K" (str.at var56 430)))
(assert (= "6" (str.at var1 564)))
(assert (= "I" (str.at var1 311)))
(assert (= "," (str.at var32 704)))
(assert (= "K" (str.at var23 270)))
(assert (= "S" (str.at var3 525)))
(assert (= "=" (str.at var17 774)))
(assert (= "w" (str.at var3 914)))
(assert (= "0" (str.at var50 112)))
(assert (= "w" (str.at var5 498)))
(assert (= "E" (str.at var53 800)))
(assert (= "." (str.at var18 520)))
(assert (= "#" (str.at var5 682)))
(assert (= "h" (str.at var42 419)))
(assert (= "A" (str.at var0 503)))
(assert (= "`" (str.at var23 87)))
(assert (= "X" (str.at var60 931)))
(assert (= "X" (str.at var45 614)))
(assert (= "B" (str.at var57 898)))
(assert (= "]" (str.at var55 79)))
(assert (= "$" (str.at var49 235)))
(assert (= "e" (str.at var14 804)))
(assert (= "d" (str.at var59 764)))
(assert (= "V" (str.at var8 638)))
(assert (= ":" (str.at var53 692)))
(assert (= "J" (str.at var2 680)))
(assert (= "D" (str.at var52 567)))
(assert (= "q" (str.at var44 276)))
(assert (= "i" (str.at var24 828)))
(assert (= "v" (str.at var9 764)))
(assert (= "H" (str.at var0 641)))
(assert (= "S" (str.at var51 249)))
(assert (= "J" (str.at var50 936)))
(assert (= "#" (str.at var4 601)))
(assert (= "R" (str.at var60 904)))
(assert (= "s" (str.at var48 830)))
(assert (= "," (str.at var17 431)))
(assert (= "!" (str.at var2 618)))
(assert (= "~" (str.at var45 171)))
(assert (= "A" (str.at var14 808)))
(assert (= "T" (str.at var38 907)))
(assert (= "]" (str.at var43 216)))
(assert (= "q" (str.at var7 843)))
(assert (= "L" (str.at var11 5)))
(assert (= "L" (str.at var4 37)))
(assert (= "9" (str.at var31 372)))
(assert (= "u" (str.at var22 647)))
(assert (= "*" (str.at var2 824)))
(assert (= "i" (str.at var11 265)))
(assert (= "d" (str.at var49 197)))
(assert (= "Q" (str.at var35 209)))
(assert (= "x" (str.at var30 662)))
(assert (= "|" (str.at var16 703)))
(assert (= "=" (str.at var48 78)))
(assert (= "f" (str.at var4 237)))
(assert (= "-" (str.at var18 792)))
(assert (= "w" (str.at var42 879)))
(assert (= "{" (str.at var3 807)))
(assert (= "w" (str.at var33 100)))
(assert (= "W" (str.at var14 159)))
(assert (= "B" (str.at var23 159)))
(assert (= ">" (str.at var10 171)))
(assert (= ")" (str.at var20 308)))
(assert (= "6" (str.at var48 157)))
(assert (= "^" (str.at var32 938)))
(assert (= "=" (str.at var21 31)))
(assert (= "U" (str.at var56 833)))
(assert (= "u" (str.at var28 885)))
(assert (= "(" (str.at var4 122)))
(assert (= "I" (str.at var32 973)))
(assert (= "^" (str.at var4 693)))
(assert (= "?" (str.at var33 412)))
(assert (= "P" (str.at var34 907)))
(assert (= "0" (str.at var19 256)))
(assert (= "B" (str.at var37 717)))
(assert (= "N" (str.at var54 565)))
(assert (= "9" (str.at var5 721)))
(assert (= "\\" (str.at var33 517)))
(assert (= "e" (str.at var25 319)))
(assert (= "3" (str.at var40 47)))
(assert (= "q" (str.at var59 212)))
(assert (= "j" (str.at var10 650)))
(assert (= "n" (str.at var27 696)))
(assert (= "m" (str.at var45 705)))
(assert (= "s" (str.at var2 455)))
(assert (= "'" (str.at var4 621)))
(assert (= """" (str.at var3 183)))
(assert (= "9" (str.at var1 262)))
(assert (= "b" (str.at var16 552)))
(assert (= "\\" (str.at var26 192)))
(assert (= "N" (str.at var5 636)))
(assert (= "D" (str.at var32 132)))
(assert (= "O" (str.at var31 654)))
(assert (= ";" (str.at var30 412)))
(assert (= "d" (str.at var45 894)))
(assert (= "B" (str.at var54 468)))
(assert (= "e" (str.at var38 285)))
(assert (= "K" (str.at var52 456)))
(assert (= "i" (str.at var11 273)))
(assert (= "l" (str.at var16 277)))
(assert (= "z" (str.at var50 73)))
(assert (= "9" (str.at var40 190)))
(assert (= "f" (str.at var11 927)))
(assert (= "X" (str.at var30 116)))
(assert (= "1" (str.at var36 123)))
(assert (= "%" (str.at var30 291)))
(assert (= "." (str.at var21 522)))
(assert (= "E" (str.at var59 177)))
(assert (= "i" (str.at var7 55)))
(assert (= "-" (str.at var36 994)))
(assert (= "8" (str.at var43 799)))
(assert (= "S" (str.at var40 212)))
(assert (= "*" (str.at var49 934)))
(assert (= "'" (str.at var22 220)))
(assert (= "r" (str.at var29 76)))
(assert (= "R" (str.at var59 15)))
(assert (= "l" (str.at var2 900)))
(assert (= """" (str.at var17 365)))
(assert (= "." (str.at var56 973)))
(assert (= "O" (str.at var22 173)))
(assert (= "h" (str.at var40 287)))
(assert (= "+" (str.at var2 5)))
(assert (= "5" (str.at var42 839)))
(assert (= "9" (str.at var9 323)))
(assert (= "V" (str.at var22 597)))
(assert (= "E" (str.at var33 758)))
(assert (= "X" (str.at var35 620)))
(assert (= "*" (str.at var26 585)))
(assert (= "C" (str.at var11 948)))
(assert (= "e" (str.at var3 853)))
(assert (= "3" (str.at var55 984)))
(assert (= "O" (str.at var39 432)))
(assert (= "d" (str.at var18 906)))
(assert (= "/" (str.at var2 895)))
(assert (= "b" (str.at var53 448)))
(assert (= "{" (str.at var7 301)))
(assert (= "T" (str.at var48 305)))
(assert (= "{" (str.at var33 462)))
(assert (= "Q" (str.at var47 601)))
(assert (= "3" (str.at var4 225)))
(assert (= "U" (str.at var58 691)))
(assert (= "m" (str.at var50 721)))
(assert (= "*" (str.at var56 171)))
(assert (= "," (str.at var53 902)))
(assert (= "4" (str.at var42 22)))
(assert (= "r" (str.at var52 91)))
(assert (= "g" (str.at var32 655)))
(assert (= "|" (str.at var2 910)))
(assert (= ":" (str.at var34 733)))
(assert (= "$" (str.at var15 258)))
(assert (= "|" (str.at var57 534)))
(assert (= "[" (str.at var20 17)))
(assert (= "i" (str.at var15 420)))
(assert (= "]" (str.at var9 954)))
(assert (= "x" (str.at var27 334)))
(assert (= "`" (str.at var4 790)))
(assert (= "{" (str.at var40 507)))
(assert (= "x" (str.at var6 457)))
(assert (= "+" (str.at var54 562)))
(assert (= "g" (str.at var23 306)))
(assert (= "+" (str.at var47 366)))
(assert (= "]" (str.at var25 770)))
(assert (= "$" (str.at var47 520)))
(assert (= "Q" (str.at var51 289)))
(assert (= "R" (str.at var60 678)))
(assert (= "U" (str.at var38 195)))
(assert (= "i" (str.at var41 635)))
(assert (= """" (str.at var7 793)))
(assert (= "z" (str.at var39 994)))
(assert (= "!" (str.at var40 36)))
(assert (= ")" (str.at var34 368)))
(assert (= "#" (str.at var47 685)))
(assert (= "n" (str.at var58 419)))
(assert (= "@" (str.at var6 919)))
(assert (= "=" (str.at var17 852)))
(assert (= "6" (str.at var10 150)))
(assert (= "T" (str.at var9 491)))
(assert (= "S" (str.at var27 105)))
(assert (= ">" (str.at var34 536)))
(assert (= "^" (str.at var26 137)))
(assert (= "7" (str.at var16 881)))
(assert (= "-" (str.at var41 915)))
(assert (= "A" (str.at var27 794)))
(assert (= "j" (str.at var8 968)))
(assert (= "Y" (str.at var8 449)))
(assert (= "(" (str.at var23 752)))
(assert (= "p" (str.at var26 287)))
(assert (= "@" (str.at var53 907)))
(assert (= "d" (str.at var59 656)))
(assert (= "K" (str.at var45 969)))
(assert (= "}" (str.at var53 43)))
(assert (= "g" (str.at var37 174)))
(assert (= "7" (str.at var41 920)))
(assert (= "6" (str.at var40 932)))
(assert (= ":" (str.at var16 586)))
(assert (= "\\" (str.at var1 236)))
(assert (= "?" (str.at var10 131)))
(assert (= "'" (str.at var36 938)))
(assert (= "(" (str.at var4 678)))
(assert (= ":" (str.at var4 38)))
(assert (= "M" (str.at var24 452)))
(assert (= "?" (str.at var24 780)))
(assert (= "D" (str.at var46 83)))
(assert (= "?" (str.at var14 850)))
(assert (= "E" (str.at var19 251)))
(assert (= "R" (str.at var12 53)))
(assert (= "0" (str.at var54 278)))
(assert (= "U" (str.at var36 776)))
(assert (= ":" (str.at var52 670)))
(assert (= "Y" (str.at var39 672)))
(assert (= "j" (str.at var56 324)))
(assert (= "$" (str.at var45 433)))
(assert (= "f" (str.at var1 707)))
(assert (= "}" (str.at var43 809)))
(assert (= "5" (str.at var12 756)))
(assert (= "n" (str.at var51 601)))
(assert (= "P" (str.at var23 575)))
(assert (= "!" (str.at var22 229)))
(assert (= "8" (str.at var55 588)))
(assert (= "k" (str.at var0 762)))
(assert (= "r" (str.at var30 355)))
(assert (= ";" (str.at var1 340)))
(assert (= "k" (str.at var15 234)))
(assert (= "e" (str.at var42 665)))
(assert (= "j" (str.at var26 203)))
(assert (= "," (str.at var10 456)))
(assert (= "[" (str.at var17 908)))
(assert (= "f" (str.at var10 382)))
(assert (= "%" (str.at var50 602)))
(assert (= "L" (str.at var46 840)))
(assert (= "3" (str.at var59 163)))
(assert (= "I" (str.at var33 661)))
(assert (= "6" (str.at var13 591)))
(assert (= "z" (str.at var43 907)))
(assert (= "7" (str.at var17 509)))
(assert (= "1" (str.at var49 129)))
(assert (= "}" (str.at var39 419)))
(assert (= "Z" (str.at var0 747)))
(assert (= "w" (str.at var24 804)))
(assert (= "O" (str.at var0 394)))
(assert (= "L" (str.at var48 923)))
(assert (= "B" (str.at var14 992)))
(assert (= "u" (str.at var5 511)))
(assert (= "V" (str.at var29 381)))
(assert (= "T" (str.at var15 353)))
(assert (= "j" (str.at var42 531)))
(assert (= "^" (str.at var33 410)))
(assert (= "x" (str.at var15 283)))
(assert (= "|" (str.at var38 325)))
(assert (= "@" (str.at var45 11)))
(assert (= "G" (str.at var58 693)))
(assert (= "-" (str.at var22 872)))
(assert (= "2" (str.at var5 768)))
(assert (= "G" (str.at var47 838)))
(assert (= "|" (str.at var14 663)))
(assert (= "8" (str.at var5 946)))
(assert (= "a" (str.at var56 382)))
(assert (= "k" (str.at var9 170)))
(assert (= "v" (str.at var8 456)))
(assert (= ">" (str.at var21 186)))
(assert (= "D" (str.at var26 958)))
(assert (= "S" (str.at var40 441)))
(assert (= "L" (str.at var25 832)))
(assert (= "C" (str.at var51 225)))
(assert (= "8" (str.at var49 401)))
(assert (= "{" (str.at var14 466)))
(assert (= "D" (str.at var8 503)))
(assert (= "q" (str.at var23 993)))
(assert (= "L" (str.at var60 210)))
(assert (= "x" (str.at var53 64)))
(assert (= "u" (str.at var45 224)))
(assert (= "S" (str.at var4 963)))
(assert (= "@" (str.at var48 818)))
(assert (= "M" (str.at var34 512)))
(assert (= "m" (str.at var5 750)))
(assert (= """" (str.at var39 58)))
(assert (= "'" (str.at var6 517)))
(assert (= "F" (str.at var58 798)))
(assert (= "/" (str.at var57 559)))
(assert (= "Z" (str.at var44 879)))
(assert (= "0" (str.at var55 323)))
(assert (= "a" (str.at var36 589)))
(assert (= "C" (str.at var54 686)))
(assert (= "V" (str.at var33 43)))
(assert (= ")" (str.at var2 258)))
(assert (= "H" (str.at var60 638)))
(assert (= "7" (str.at var28 386)))
(assert (= "]" (str.at var46 101)))
(assert (= "]" (str.at var23 904)))
(assert (= "t" (str.at var46 478)))
(assert (= "3" (str.at var39 147)))
(assert (= "h" (str.at var17 16)))
(assert (= "h" (str.at var60 335)))
(assert (= "|" (str.at var31 569)))
(assert (= "T" (str.at var22 593)))
(assert (= "g" (str.at var36 240)))
(assert (= "b" (str.at var3 950)))
(assert (= "U" (str.at var53 465)))
(assert (= "H" (str.at var25 7)))
(assert (= "F" (str.at var59 420)))
(assert (= "a" (str.at var41 289)))
(assert (= "," (str.at var5 561)))
(assert (= "M" (str.at var5 143)))
(assert (= "h" (str.at var28 686)))
(assert (= "6" (str.at var23 373)))
(assert (= "l" (str.at var52 928)))
(assert (= "a" (str.at var18 538)))
(assert (= "y" (str.at var36 480)))
(assert (= "^" (str.at var41 562)))
(assert (= "T" (str.at var25 82)))
(assert (= "e" (str.at var31 571)))
(assert (= "<" (str.at var12 985)))
(assert (= "Q" (str.at var2 395)))
(assert (= "3" (str.at var27 937)))
(assert (= "y" (str.at var19 489)))
(assert (= "[" (str.at var4 854)))
(assert (= "]" (str.at var48 614)))
(assert (= "y" (str.at var40 15)))
(assert (= "W" (str.at var19 203)))
(assert (= ";" (str.at var36 586)))
(assert (= "3" (str.at var30 427)))
(assert (= "C" (str.at var8 239)))
(assert (= ")" (str.at var55 305)))
(assert (= "j" (str.at var16 596)))
(assert (= "," (str.at var22 628)))
(assert (= "Y" (str.at var53 553)))
(assert (= "s" (str.at var54 948)))
(assert (= "f" (str.at var0 223)))
(assert (= "<" (str.at var8 682)))
(assert (= "W" (str.at var30 608)))
(assert (= "c" (str.at var8 698)))
(assert (= "@" (str.at var18 291)))
(assert (= "S" (str.at var52 897)))
(assert (= "=" (str.at var60 17)))
(assert (= "K" (str.at var30 763)))
(assert (= "j" (str.at var17 389)))
(assert (= "`" (str.at var43 116)))
(assert (= "J" (str.at var8 626)))
(assert (= "y" (str.at var48 898)))
(assert (= "C" (str.at var57 529)))
(assert (= "-" (str.at var4 900)))
(assert (= "L" (str.at var45 562)))
(assert (= "q" (str.at var47 271)))
(assert (= "." (str.at var41 38)))
(assert (= "!" (str.at var31 42)))
(assert (= "o" (str.at var46 327)))
(assert (= "n" (str.at var25 824)))
(assert (= "k" (str.at var40 587)))
(assert (= "W" (str.at var7 602)))
(assert (= "Q" (str.at var16 379)))
(assert (= "." (str.at var4 734)))
(assert (= "?" (str.at var5 379)))
(assert (= "T" (str.at var45 976)))
(assert (= "*" (str.at var53 950)))
(assert (= "U" (str.at var21 194)))
(assert (= "%" (str.at var14 70)))
(assert (= "|" (str.at var57 899)))
(assert (= "Y" (str.at var38 331)))
(assert (= "C" (str.at var49 26)))
(assert (= "w" (str.at var60 71)))
(assert (= "w" (str.at var46 986)))
(assert (= "W" (str.at var56 695)))
(assert (= "*" (str.at var29 306)))
(assert (= "H" (str.at var21 789)))
(assert (= "." (str.at var9 662)))
(assert (= "1" (str.at var5 30)))
(assert (= "{" (str.at var53 593)))
(assert (= "$" (str.at var59 799)))
(assert (= "\\" (str.at var41 595)))
(assert (= "=" (str.at var53 895)))
(assert (= ";" (str.at var58 948)))
(assert (= "4" (str.at var58 871)))
(assert (= "'" (str.at var36 460)))
(assert (= "9" (str.at var6 777)))
(assert (= "I" (str.at var20 23)))
(assert (= "r" (str.at var13 629)))
(assert (= "5" (str.at var50 52)))
(assert (= "(" (str.at var20 149)))
(assert (= "X" (str.at var51 572)))
(assert (= "+" (str.at var21 784)))
(assert (= "9" (str.at var27 598)))
(assert (= "e" (str.at var14 523)))
(assert (= "\\" (str.at var27 708)))
(assert (= "6" (str.at var25 627)))
(assert (= "%" (str.at var28 26)))
(assert (= "d" (str.at var46 465)))
(assert (= "[" (str.at var8 75)))
(assert (= "K" (str.at var27 322)))
(assert (= "o" (str.at var33 330)))
(assert (= ")" (str.at var10 127)))
(assert (= "]" (str.at var11 740)))
(check-sat)
(get-model)